farm = {"1" "2" "3"};
apple={"1" "2" "3"};
 
SheetConnection OR("C:\\Users\\ASUS\\Dropbox\\My PC (DESKTOP-TTB2M26)\\Downloads\\OR.xlsx");

land from SheetRead (OR,"Sheet1! B2 : B4");
water from SheetRead (OR,"Sheet1! C2 : C4");
maxland from SheetRead (OR,"Sheet1! B7 : B9");
waterneeded from SheetRead (OR,"Sheet1! C7 : C9");
profit from SheetRead (OR,"Sheet1! D7 : D9");
land_apple to SheetWrite (OR, "Sheet2! B2 : D4 ");
